c Random generated cnf formula, satisfiable: true
p cnf 10 50
3 9 10 0
5 -10 3 0
-9 -6 7 0
2 -9 -10 0
-8 2 -1 0
6 -3 -5 0
9 -10 3 0
5 8 4 0
-4 -1 -6 0
-10 -5 4 0
-2 -5 -8 0
4 -1 10 0
6 10 2 0
10 -8 2 0
8 -6 1 0
-6 -4 2 0
-3 2 -10 0
-7 -5 8 0
4 -2 6 0
5 -1 4 0
-6 8 9 0
-9 -1 -6 0
-2 -4 -1 0
-9 -5 -3 0
-9 -2 10 0
9 -8 2 0
6 -3 10 0
4 -9 -10 0
3 6 2 0
-8 2 7 0
-4 6 -3 0
-2 8 6 0
5 -9 4 0
9 -10 7 0
8 -10 9 0
-1 -4 -3 0
-9 4 6 0
-8 -4 -10 0
2 3 -10 0
3 4 9 0
4 -3 -7 0
-2 -6 -5 0
-7 1 10 0
-2 9 3 0
-7 4 8 0
-4 7 8 0
4 -1 -2 0
-4 3 8 0
-7 10 1 0
-5 -10 -2 0
